benchmarks_CP/INST_36x36/55/inst36x36_55_20.dzn
S=6;
start=[|
-1,	18,	9,	8,	3,	-1,	-1,	1,	31,	-1,	30,	34,	10,	23,	5,	2,	19,	-1,	12,	-1,	32,	-1,	-1,	16,	-1,	-1,	-1,	-1,	13,	21,	-1,	-1,	-1,	-1,	-1,	22|
26,	-1,	-1,	-1,	1,	-1,	-1,	22,	-1,	8,	17,	32,	14,	31,	29,	25,	-1,	-1,	-1,	4,	-1,	34,	24,	-1,	16,	10,	-1,	-1,	2,	19,	9,	6,	21,	-1,	-1,	15|
-1,	-1,	-1,	-1,	10,	-1,	16,	23,	35,	27,	6,	2,	-1,	32,	-1,	30,	-1,	-1,	25,	9,	-1,	-1,	3,	29,	12,	-1,	24,	15,	-1,	4,	34,	-1,	1,	-1,	-1,	-1|
-1,	4,	-1,	-1,	-1,	34,	5,	10,	-1,	-1,	15,	-1,	21,	-1,	-1,	-1,	-1,	-1,	30,	17,	11,	14,	8,	-1,	22,	6,	26,	36,	25,	-1,	27,	2,	29,	12,	-1,	-1|
-1,	29,	13,	24,	12,	2,	19,	-1,	11,	26,	-1,	-1,	-1,	-1,	17,	9,	34,	-1,	-1,	-1,	-1,	-1,	-1,	-1,	32,	8,	23,	30,	-1,	7,	36,	16,	14,	-1,	20,	3|
-1,	23,	-1,	21,	-1,	25,	13,	29,	-1,	-1,	24,	-1,	3,	-1,	27,	26,	18,	-1,	2,	19,	20,	-1,	10,	22,	31,	-1,	33,	1,	-1,	11,	-1,	-1,	5,	17,	32,	-1|
-1,	-1,	10,	-1,	11,	-1,	-1,	17,	-1,	-1,	-1,	-1,	-1,	-1,	-1,	5,	33,	4,	3,	20,	14,	-1,	2,	-1,	8,	30,	-1,	21,	19,	-1,	24,	26,	34,	-1,	28,	-1|
-1,	-1,	-1,	-1,	-1,	-1,	-1,	24,	1,	-1,	-1,	22,	23,	13,	-1,	-1,	32,	26,	4,	10,	8,	28,	-1,	-1,	25,	-1,	15,	18,	33,	-1,	7,	19,	-1,	30,	-1,	-1|
-1,	28,	6,	-1,	23,	22,	26,	15,	-1,	-1,	35,	-1,	11,	12,	-1,	-1,	7,	31,	16,	24,	21,	30,	-1,	17,	13,	-1,	-1,	34,	-1,	9,	20,	-1,	27,	-1,	4,	14|
12,	24,	-1,	-1,	-1,	32,	2,	16,	-1,	3,	36,	-1,	28,	18,	20,	17,	35,	22,	29,	13,	-1,	25,	-1,	-1,	11,	26,	7,	-1,	-1,	-1,	23,	5,	33,	21,	8,	-1|
-1,	26,	21,	-1,	4,	-1,	-1,	20,	9,	6,	13,	-1,	-1,	-1,	-1,	34,	15,	24,	-1,	7,	33,	12,	23,	5,	14,	-1,	3,	28,	1,	16,	32,	25,	31,	11,	2,	18|
-1,	-1,	5,	-1,	-1,	-1,	-1,	21,	30,	-1,	-1,	33,	27,	-1,	25,	-1,	-1,	2,	-1,	-1,	-1,	32,	26,	-1,	4,	-1,	-1,	-1,	-1,	35,	15,	-1,	6,	-1,	10,	13|
-1,	9,	-1,	10,	-1,	-1,	30,	-1,	23,	-1,	18,	-1,	-1,	-1,	26,	-1,	-1,	15,	-1,	33,	4,	-1,	-1,	25,	-1,	-1,	13,	16,	-1,	28,	14,	-1,	8,	20,	-1,	-1|
34,	-1,	-1,	23,	-1,	6,	22,	2,	20,	17,	-1,	-1,	8,	11,	4,	-1,	28,	-1,	19,	-1,	36,	13,	21,	-1,	-1,	3,	32,	14,	5,	-1,	-1,	33,	-1,	-1,	25,	-1|
-1,	-1,	-1,	-1,	-1,	24,	14,	-1,	-1,	29,	-1,	-1,	2,	-1,	36,	13,	-1,	27,	28,	-1,	3,	1,	32,	7,	15,	-1,	11,	-1,	-1,	26,	-1,	12,	-1,	-1,	30,	-1|
21,	14,	11,	28,	-1,	-1,	24,	31,	15,	-1,	-1,	16,	12,	6,	7,	-1,	17,	33,	9,	-1,	30,	-1,	5,	-1,	-1,	-1,	-1,	-1,	-1,	-1,	-1,	13,	-1,	-1,	26,	-1|
-1,	13,	-1,	-1,	-1,	8,	25,	28,	26,	1,	-1,	19,	31,	-1,	21,	29,	-1,	30,	-1,	14,	17,	24,	-1,	18,	-1,	-1,	-1,	-1,	22,	12,	3,	-1,	36,	15,	-1,	34|
29,	32,	-1,	-1,	30,	-1,	21,	-1,	33,	10,	11,	6,	24,	25,	35,	3,	-1,	14,	-1,	12,	2,	22,	-1,	-1,	7,	27,	8,	-1,	-1,	-1,	31,	23,	17,	-1,	-1,	28|
27,	-1,	-1,	-1,	17,	11,	4,	25,	29,	15,	-1,	26,	-1,	28,	-1,	23,	-1,	10,	34,	-1,	-1,	-1,	-1,	21,	1,	24,	-1,	5,	14,	-1,	-1,	32,	20,	3,	22,	2|
-1,	2,	1,	36,	8,	4,	-1,	11,	-1,	-1,	19,	-1,	-1,	17,	32,	-1,	21,	34,	13,	6,	-1,	-1,	-1,	-1,	27,	-1,	-1,	-1,	-1,	-1,	-1,	-1,	18,	7,	-1,	25|
16,	-1,	15,	6,	22,	28,	-1,	-1,	17,	-1,	31,	5,	-1,	-1,	33,	14,	13,	-1,	11,	25,	27,	-1,	-1,	-1,	-1,	20,	12,	32,	-1,	2,	4,	24,	-1,	9,	36,	19|
9,	-1,	3,	5,	-1,	20,	6,	-1,	-1,	24,	2,	-1,	-1,	-1,	1,	-1,	36,	18,	-1,	28,	29,	23,	-1,	-1,	19,	-1,	-1,	8,	-1,	34,	17,	14,	11,	-1,	-1,	33|
-1,	-1,	26,	-1,	-1,	29,	-1,	7,	-1,	30,	33,	23,	-1,	2,	31,	-1,	-1,	-1,	5,	-1,	-1,	10,	17,	4,	-1,	36,	9,	-1,	-1,	-1,	-1,	-1,	13,	8,	-1,	6|
7,	25,	-1,	-1,	21,	-1,	-1,	27,	16,	36,	-1,	10,	-1,	30,	-1,	24,	-1,	11,	-1,	2,	19,	33,	22,	-1,	35,	13,	-1,	-1,	6,	15,	1,	-1,	-1,	23,	-1,	26|
14,	8,	24,	29,	-1,	16,	15,	36,	-1,	28,	10,	-1,	-1,	-1,	-1,	6,	-1,	-1,	20,	-1,	12,	9,	-1,	19,	-1,	35,	-1,	-1,	7,	-1,	-1,	3,	23,	25,	27,	-1|
5,	-1,	19,	-1,	9,	-1,	29,	-1,	-1,	-1,	22,	24,	-1,	7,	-1,	-1,	-1,	-1,	27,	30,	25,	8,	16,	-1,	-1,	18,	4,	-1,	-1,	17,	-1,	-1,	35,	-1,	21,	-1|
-1,	21,	-1,	4,	-1,	-1,	35,	-1,	2,	16,	23,	-1,	19,	-1,	15,	28,	10,	20,	-1,	-1,	7,	-1,	-1,	-1,	29,	-1,	34,	-1,	36,	22,	-1,	8,	-1,	24,	-1,	-1|
15,	-1,	-1,	25,	-1,	-1,	-1,	-1,	27,	11,	26,	17,	13,	14,	24,	-1,	-1,	-1,	-1,	29,	-1,	-1,	35,	36,	33,	-1,	1,	-1,	-1,	6,	-1,	-1,	4,	16,	-1,	31|
35,	-1,	-1,	-1,	-1,	-1,	18,	4,	34,	19,	21,	-1,	30,	-1,	22,	27,	25,	-1,	-1,	-1,	-1,	17,	-1,	33,	-1,	12,	-1,	31,	-1,	-1,	-1,	20,	9,	2,	15,	1|
-1,	-1,	-1,	-1,	33,	12,	7,	-1,	25,	32,	-1,	1,	-1,	-1,	8,	-1,	4,	-1,	-1,	-1,	34,	-1,	13,	14,	9,	-1,	-1,	10,	24,	-1,	-1,	-1,	-1,	-1,	17,	-1|
30,	-1,	23,	22,	-1,	1,	31,	-1,	36,	20,	16,	-1,	33,	5,	28,	7,	29,	-1,	35,	21,	10,	4,	34,	-1,	6,	14,	18,	-1,	27,	8,	11,	9,	-1,	19,	13,	-1|
-1,	-1,	-1,	-1,	32,	-1,	8,	34,	18,	21,	1,	-1,	-1,	-1,	2,	-1,	-1,	25,	17,	11,	5,	29,	14,	13,	26,	-1,	19,	7,	-1,	-1,	22,	35,	16,	-1,	12,	27|
18,	-1,	17,	-1,	-1,	14,	-1,	19,	-1,	2,	4,	-1,	22,	27,	10,	-1,	-1,	21,	7,	-1,	-1,	-1,	-1,	-1,	36,	-1,	35,	12,	-1,	13,	33,	28,	-1,	-1,	29,	20|
11,	27,	8,	-1,	-1,	36,	-1,	-1,	6,	-1,	-1,	12,	34,	-1,	13,	-1,	3,	-1,	-1,	26,	22,	20,	33,	-1,	10,	-1,	29,	25,	21,	1,	-1,	18,	30,	-1,	14,	23|
24,	-1,	-1,	-1,	-1,	-1,	9,	-1,	22,	-1,	29,	35,	17,	-1,	23,	-1,	11,	-1,	31,	18,	1,	6,	-1,	-1,	34,	2,	16,	33,	30,	-1,	-1,	-1,	-1,	-1,	-1,	-1|
13,	-1,	29,	-1,	-1,	-1,	27,	-1,	10,	-1,	28,	-1,	-1,	-1,	-1,	16,	14,	-1,	-1,	36,	23,	19,	-1,	2,	-1,	-1,	-1,	11,	-1,	-1,	5,	21,	7,	-1,	6,	-1|];
